
se = 80; % nombre de sessions
gr = 40; % nombre de grups de treball
cl = 12; % nombre de slots
minPapersPerSlot = 3; % minim nombre d'articles per sessio i slot
maxSesionsPar = 20; % maxim nombre de sessions paraleles

npMax = [3, 5, 6, 4, 3, 4, 4, 6, 3, 5, 6, 5]; % nombre maxim de papers per slot

np = [3, 7, 13, 3, 13, 5, 3, 8, 13, 13, 5, 19, 14, 8, 3, 6, 8, 14, 18, 4, 4, 14, 11, 11, 13, 11, 3, 4, 13, 16, 3, 3, 3, 18, 19, 7, 4, 8, 11, 3, 15, 3, 3, 11, 11, 9, 10, 14, 10, 14, 3, 6, 3, 3, 8, 11, 15, 18, 8, 7, 14, 3, 3, 3, 3, 10, 12, 4, 18, 13, 12, 8, 20, 14, 10, 15, 5, 17, 13, 18]; % nombre de papers acceptats a cada sessio

WG = [ {1}, {2}, {}, {3,4,5}, {6,7,8}, {}, {9}, {10}, {11}, {12,13,14}, {15}, {16,17}, {18}, {}, {19,20}, {21}, {}, {22}, {23}, {24}, {}, {25}, {26}, {27,28,29}, {}, {30}, {31}, {32,33,34}, {35}, {36}, {37}, {}, {}, {}, {38,39,40}, {1,2}, {3}, {4,5}, {}, {6,7}, {8}, {9}, {10}, {11}, {12}, {}, {13}, {14}, {}, {15,16}, {17}, {}, {}, {18,19}, {}, {20}, {21}, {22}, {23}, {24,25}, {}, {26}, {27}, {28,29,30}, {}, {31}, {32}, {33,34}, {35}, {36}, {37}, {38}, {}, {}, {39}, {40}, {1}, {2}, {}, {} ]; % grups per sessio

